5
PBE/aug-cc-pVDZ global_min E=-2667.596799020 Eh optimizer converged in 8 steps
H       -0.00000000     -0.00000000      4.66785167
C        0.00000000      0.00000000      3.56352016
N        0.00000000      0.00000000      2.39775114
H        0.00000000      0.00000000      0.47238236
Br      -0.00000000     -0.00000000     -1.01500766
5
PW91/aug-cc-pVDZ global_min E=-2668.205845510 Eh optimizer converged in 39 steps
H       -0.00000000     -0.00000001      4.77711481
C        0.00000000      0.00000000      3.67460823
N        0.00000001      0.00000001      2.51043831
H        0.00000000      0.00000000      0.60367144
Br      -0.00000000     -0.00000000     -0.88407976
5
BP86/aug-cc-pVDZ global_min E=-2668.373565870 Eh optimizer converged in 8 steps
H        0.00000000      0.00000000      4.67047108
C        0.00000000      0.00000000      3.56566156
N       -0.00000000     -0.00000000      2.39942968
H       -0.00000000     -0.00000000      0.47143555
Br       0.00000000     -0.00000000     -1.01820079
5
BLYP/aug-cc-pVDZ global_min E=-2668.100062100 Eh optimizer converged in 9 steps
H        0.00000000     -0.00000000      4.71880386
C        0.00000000      0.00000000      3.61628328
N       -0.00000000      0.00000000      2.45010746
H       -0.00000000     -0.00000000      0.41966201
Br      -0.00000000     -0.00000000     -1.06658120
5
B97/aug-cc-pVDZ global_min E=-2667.941040260 Eh NOT converged: hit 1500-step cap, Hessian run anyway
H        0.00000000      0.00000000      7.57109351
C        0.00000000      0.00000000      6.47337742
N       -0.00000000     -0.00000000      5.31573321
H       -0.00000000     -0.00000000      3.25898096
Br      -0.00000000     -0.00000000      1.78948150
5
PBE/aug-cc-pVTZ global_min E=-2667.689656070 Eh optimizer converged in 8 steps; geometry from post-opt array
H       -0.00000000     -0.00000000      4.66585492
C        0.00000000      0.00000000      3.56547366
N        0.00000000      0.00000000      2.40962255
H        0.00000000      0.00000000      0.46672139
Br      -0.00000000     -0.00000000     -1.01691374
5
PW91/aug-cc-pVTZ global_min E=-2668.300539240 Eh optimizer converged in 8 steps; geometry from post-opt array
H       -0.00000000      0.00000000      4.65599592
C       -0.00000000     -0.00000000      3.55742478
N        0.00000000     -0.00000000      2.40337180
H        0.00000000     -0.00000000      0.47467804
Br      -0.00000000      0.00000000     -1.00857756
5
BP86/aug-cc-pVTZ global_min E=-2668.468062470 Eh optimizer converged in 8 steps; geometry from post-opt array
H       -0.00000000     -0.00000000      4.66967457
C        0.00000000     -0.00000000      3.56936545
N        0.00000000     -0.00000000      2.41350744
H        0.00000000      0.00000000      0.46336788
Br      -0.00000000      0.00000000     -1.02116848
5
BLYP/aug-cc-pVTZ global_min E=-2668.197277840 Eh optimizer converged in 15 steps; geometry from post-opt array
H       -0.00000000      0.00000000      4.72123798
C        0.00000000     -0.00000000      3.62412915
N        0.00000000     -0.00000000      2.46868396
H       -0.00000000      0.00000000      0.40571519
Br       0.00000000      0.00000000     -1.07446955
5
B97/aug-cc-pVTZ global_min E=-2668.034050030 Eh NOT converged: hit 1500-step cap, Hessian run anyway; geometry from post-opt array
H        0.00028174     -0.00003894      7.67434837
C        0.00009095     -0.00001257      6.58098875
N       -0.00010845      0.00001499      5.43325730
H       -0.00007458      0.00001031      3.36101703
Br       0.00006368     -0.00000880      1.89507286
5
PBE/aug-cc-pVQZ global_min E=-2667.699149850 Eh optimizer converged in 10 steps; geometry from post-opt array
H       -0.00000000      0.00000000      4.66697165
C       -0.00000000      0.00000000      3.56667568
N        0.00000000      0.00000000      2.41152675
H        0.00000000      0.00000000      0.46461653
Br      -0.00000000     -0.00000000     -1.01845064
5
PW91/aug-cc-pVQZ global_min E=-2668.310017180 Eh optimizer converged in 8 steps; geometry from post-opt array
H        0.00000000     -0.00000000      4.65738764
C        0.00000000     -0.00000000      3.55892281
N       -0.00000000      0.00000000      2.40554050
H       -0.00000000      0.00000000      0.47285632
Br       0.00000000      0.00000000     -1.00986716
5
BP86/aug-cc-pVQZ global_min E=-2668.477547780 Eh optimizer converged in 8 steps; geometry from post-opt array
H       -0.00000000      0.00000000      4.67171884
C        0.00000000      0.00000000      3.57146897
N        0.00000000     -0.00000000      2.41627091
H       -0.00000000     -0.00000000      0.46037763
Br      -0.00000000      0.00000000     -1.02348456
5
BLYP/aug-cc-pVQZ global_min E=-2668.206767500 Eh optimizer converged in 13 steps; geometry from post-opt array
H       -0.00000000      0.00000000      4.72220099
C       -0.00000000     -0.00000000      3.62522134
N       -0.00000000     -0.00000000      2.47049269
H        0.00000000      0.00000000      0.40333809
Br       0.00000000      0.00000000     -1.07630213
5
B97/aug-cc-pVQZ global_min E=-2668.043467210 Eh NOT finished: killed after 212 steps; geometry from the last completed optimizer step 212 (6 decimals)
H       -0.00000000      0.00000000      5.14786100
C       -0.00000000      0.00000000      4.05449700
N        0.00000000     -0.00000000      2.90761000
H        0.00000000     -0.00000000      0.83023000
Br      -0.00000000      0.00000000     -0.63494900
5
PBE/aug-cc-pVDZ local_min E=-2667.591729870 Eh optimizer converged in 21 steps; geometry from post-opt array
H        1.65362078     -0.08898028     -0.00000000
C        2.76217809     -0.03293984     -0.00000000
N        3.92987099      0.03107119      0.00000000
H       -1.19854933      1.41648073     -0.00000000
Br      -1.11374736     -0.04498350     -0.00000000
5
PW91/aug-cc-pVDZ local_min E=-2668.200563960 Eh optimizer converged in 29 steps; geometry from post-opt array
H        1.63363281     -0.09237528      0.00000000
C        2.74064174     -0.03663214      0.00000000
N        3.90681350      0.02721168     -0.00000000
H       -1.19637159      1.41184099     -0.00000000
Br      -1.11489317     -0.04895070      0.00000000
5
BP86/aug-cc-pVDZ local_min E=-2668.368556710 Eh optimizer converged in 22 steps; geometry from post-opt array
H        1.67612039     -0.08413671     -0.00000000
C        2.78541909     -0.03610526     -0.00000000
N        3.95400190      0.01912049      0.00000000
H       -1.22944435      1.42139420     -0.00000000
Br      -1.12716430     -0.04049624     -0.00000000
5
BLYP/aug-cc-pVDZ local_min E=-2668.095852110 Eh optimizer converged in 19 steps; geometry from post-opt array
H        1.73886374     -0.07939499     -0.00000000
C        2.84473150     -0.04625070     -0.00000000
N        4.01318482     -0.00771788      0.00000000
H       -1.30308219      1.43170531     -0.00000000
Br      -1.17277784     -0.03147326     -0.00000000
5
B97/aug-cc-pVDZ local_min E=-2667.936932110 Eh optimizer converged in 176 steps; geometry from post-opt array
H        1.63629015     -0.14110602     -0.00000000
C        2.73747128     -0.11798338      0.00000000
N        3.89752321     -0.08926667      0.00000000
H       -1.25802920      1.50197237      0.00000000
Br      -1.22427796      0.04746619     -0.00000000
5
PBE/aug-cc-pVTZ local_min E=-2667.684764110 Eh optimizer converged in 18 steps; geometry from post-opt array
H        1.65804555     -0.08727124     -0.00000000
C        2.76205174     -0.03430324      0.00000000
N        3.91960915      0.02617879      0.00000000
H       -1.20005875      1.41476097     -0.00000000
Br      -1.10738000     -0.04288827     -0.00000000
5
PW91/aug-cc-pVTZ local_min E=-2668.295502150 Eh optimizer converged in 25 steps; geometry from post-opt array
H        1.65019314     -0.08860322      0.00000000
C        2.75256018     -0.03646477     -0.00000000
N        3.90836651      0.02327023     -0.00000000
H       -1.19009819      1.41051777     -0.00000000
Br      -1.09829240     -0.04593039      0.00000000
5
BP86/aug-cc-pVTZ local_min E=-2668.463285980 Eh optimizer converged in 17 steps; geometry from post-opt array
H        1.68196886     -0.08070772     -0.00000000
C        2.78610960     -0.03755560     -0.00000000
N        3.94415795      0.01215218      0.00000000
H       -1.23247761      1.41907598      0.00000000
Br      -1.12259398     -0.03795726     -0.00000000
5
BLYP/aug-cc-pVTZ local_min E=-2668.193215550 Eh optimizer converged in 30 steps; geometry from post-opt array
H        1.75236932     -0.09035212     -0.00000000
C        2.85189149     -0.05602460     -0.00000000
N        4.00923129     -0.01607948      0.00000000
H       -1.29937144      1.42921499     -0.00000000
Br      -1.16949905     -0.02903133      0.00000000
5
B97/aug-cc-pVTZ local_min E=-2668.030061810 Eh optimizer converged in 74 steps; geometry from post-opt array
H        1.66410308     -0.10671346     -0.00000000
C        2.75926163     -0.05601104      0.00000000
N        3.90803108      0.00137780      0.00000000
H       -1.30606328      1.43783862      0.00000000
Br      -1.20653303     -0.01025726     -0.00000000
5
PBE/aug-cc-pVQZ local_min E=-2667.694369790 Eh optimizer converged in 18 steps; geometry from post-opt array
H        1.66176700     -0.10156573     -0.00000000
C        2.76500038     -0.03289161      0.00000000
N        3.92077538      0.04492054      0.00000000
H       -1.19542345      1.41631664      0.00000000
Br      -1.11579827     -0.04181434     -0.00000000
5
PW91/aug-cc-pVQZ local_min E=-2668.305102610 Eh optimizer converged in 27 steps; geometry from post-opt array
H        1.64427528     -0.10783299      0.00000000
C        2.74563050     -0.03695006      0.00000000
N        3.89948231      0.04335873     -0.00000000
H       -1.19171231      1.40717021     -0.00000000
Br      -1.11564357     -0.04994313     -0.00000000
5
BP86/aug-cc-pVQZ local_min E=-2668.472895220 Eh optimizer converged in 31 steps; geometry from post-opt array
H        1.68905970     -0.08874425     -0.00000000
C        2.79272809     -0.03027883     -0.00000000
N        3.94921616      0.03622676      0.00000000
H       -1.23057090      1.42203917     -0.00000000
Br      -1.13045026     -0.03543205      0.00000000
5
BLYP/aug-cc-pVQZ local_min E=-2668.202807260 Eh optimizer converged in 26 steps; geometry from post-opt array
H        1.75349102     -0.09629111     -0.00000000
C        2.85255111     -0.04545099     -0.00000000
N        4.00837710      0.01242266      0.00000000
H       -1.30139527      1.43176324     -0.00000000
Br      -1.18088244     -0.02696945     -0.00000000
5
B97/aug-cc-pVQZ local_min E=-2668.039583900 Eh optimizer converged in 118 steps; geometry from post-opt array
H        1.63321121     -0.12345712      0.00000000
C        2.72766269     -0.05590171     -0.00000000
N        3.87447958      0.01982744     -0.00000000
H       -1.32916241      1.44984560     -0.00000000
Br      -1.24966942      0.00103448      0.00000000
5
PBE/aug-cc-pVDZ xlocal_min E=-2667.590264830 Eh NOT converged: hit 1500-step cap, Hessian run anyway
H       -0.00059314     -0.00010635      2.69642805
C        0.00192858      0.00034350      1.59276659
N        0.00467755      0.00083389      0.42430682
H        0.01358011      0.00242181     -4.33315918
Br       0.01084982      0.00193485     -2.86948002
5
PW91/aug-cc-pVDZ xlocal_min E=-2668.199136810 Eh optimizer converged in 1009 steps
H        0.00525195      0.00251076      3.15916130
C       -0.00095508     -0.00037497      2.05734240
N       -0.00753386     -0.00342519      0.89045341
H       -0.02893536     -0.01231864     -3.84182726
Br      -0.02270127     -0.00975186     -2.37894761
5
BP86/aug-cc-pVDZ xlocal_min E=-2668.367005220 Eh NOT converged: hit 1500-step cap, Hessian run anyway
H       -0.00005959      0.00003554      2.93239202
C       -0.00014492      0.00008642      1.82821166
N       -0.00017466      0.00010417      0.65925116
H       -0.00039217      0.00023387     -4.16366510
Br      -0.00034198      0.00020394     -2.69855603
5
BLYP/aug-cc-pVDZ xlocal_min E=-2668.094494200 Eh NOT converged: hit 1500-step cap, Hessian run anyway
H        0.00001376     -0.00000265      3.09146152
C        0.00034676     -0.00007178      1.98951918
N        0.00061228     -0.00012683      0.82111835
H        0.00163060     -0.00033815     -4.08903922
Br       0.00136198     -0.00028242     -2.62040975
5
B97/aug-cc-pVDZ xlocal_min E=-2667.935529760 Eh NOT converged: hit 1500-step cap, Hessian run anyway
H        0.00000125     -0.00000025      2.46062147
C        0.00000165     -0.00000032      1.36353270
N        0.00000209     -0.00000040      0.20389668
H        0.00000328     -0.00000068     -4.65010668
Br       0.00000295     -0.00000059     -3.19596583
5
PBE/aug-cc-pVTZ xlocal_min E=-2667.683249510 Eh optimizer converged in 1113 steps; geometry from post-opt array
H        0.01075359      0.00227802      3.34858285
C        0.00268717      0.00058014      2.24897259
N       -0.00581220     -0.00120888      1.09075468
H       -0.03757358     -0.00789715     -3.73410187
Br      -0.02827215     -0.00593799     -2.27397308
5
PW91/aug-cc-pVTZ xlocal_min E=-2668.293987930 Eh optimizer converged in 1452 steps; geometry from post-opt array
H        0.01459816      0.00403679      2.99061415
C        0.00515474      0.00145369      1.89287103
N       -0.00485154     -0.00130306      0.73645922
H       -0.03982782     -0.01092620     -4.07286991
Br      -0.02963231     -0.00811378     -2.61401468
5
BP86/aug-cc-pVTZ xlocal_min E=-2668.461646290 Eh optimizer converged in 138 steps; geometry from post-opt array
H        0.00016701      0.00004834      4.50393917
C        0.00014244      0.00003596      3.40439467
N        0.00008987      0.00002722      2.24609533
H       -0.00017217     -0.00005031     -2.70923087
Br      -0.00014165     -0.00003897     -1.24875156
5
BLYP/aug-cc-pVTZ xlocal_min E=-2668.191920740 Eh optimizer converged in 879 steps; geometry from post-opt array
H       -0.02597186      0.00328331      3.55729665
C       -0.01570854      0.00197415      2.46091240
N       -0.00487329      0.00059200      1.30359662
H        0.04321160     -0.00540947     -3.70083005
Br       0.02925653     -0.00363348     -2.23744935
5
B97/aug-cc-pVTZ xlocal_min E=-2668.028657910 Eh optimizer converged in 11 steps; geometry from post-opt array
H       -0.00000000     -0.00000000      4.65230442
C        0.00000000      0.00000000      3.55970556
N        0.00000000      0.00000000      2.41019730
H       -0.00000000     -0.00000000     -2.52275160
Br       0.00000000      0.00000000     -1.07205995
5
PBE/aug-cc-pVQZ xlocal_min E=-2667.692822380 Eh NOT finished: killed after 212 steps; geometry from the last completed optimizer step 212 (6 decimals)
H        0.00000400     -0.00000100      4.32574900
C        0.00000100     -0.00000000      3.22622800
N       -0.00000600      0.00000200      2.06869900
H        0.00000100     -0.00000000     -2.76224000
Br      -0.00000100      0.00000000     -1.30238500
5
PW91/aug-cc-pVQZ xlocal_min E=-2668.303549970 Eh NOT finished: killed after 211 steps; geometry from the last completed optimizer step 211 (6 decimals)
H        0.00004400      0.00002800      4.38390400
C       -0.00004200     -0.00002600      3.28623400
N       -0.00006200     -0.00003800      2.13045900
H       -0.00000200     -0.00000100     -2.68601800
Br       0.00006300      0.00003900     -1.22737100
5
BP86/aug-cc-pVQZ xlocal_min E=-2668.471235170 Eh NOT finished: killed after 202 steps; geometry from the last completed optimizer step 202 (6 decimals)
H       -0.00017800     -0.00007300      4.30722100
C        0.00007200      0.00006200      3.20775800
N        0.00007600      0.00008800      2.05012900
H        0.00007300      0.00003600     -2.93374200
Br      -0.00003200     -0.00002400     -1.47361800
5
BLYP/aug-cc-pVQZ xlocal_min E=-2668.201484560 Eh NOT finished: killed after 210 steps; geometry from the last completed optimizer step 210 (6 decimals)
H        0.00016900      0.00003400      4.22063100
C       -0.00012800      0.00006800      3.12436000
N       -0.00032100     -0.00014600      1.96771400
H       -0.00041000     -0.00025700     -3.05293900
Br       0.00054600      0.00027300     -1.58981700
5
B97/aug-cc-pVQZ xlocal_min E=-2668.038145980 Eh optimizer converged in 18 steps
H       -0.00000000      0.00000000      4.64238855
C        0.00000000     -0.00000000      3.54981337
N        0.00000000     -0.00000000      2.40116958
H       -0.00000000      0.00000000     -2.54257650
Br       0.00000000     -0.00000000     -1.09241813
