5
PBE/aug-cc-pVDZ global_min E=-193.621486980 Eh optimizer converged in 7 steps
H       -0.00000000       0.00000000      -3.03327161
C        0.00000000      -0.00000000      -1.92878605
N        0.00000000      -0.00000000      -0.76461116
H       -0.00000000      -0.00000000       0.96643652
F       -0.00000000       0.00000000       1.94655712
5
PW91/aug-cc-pVDZ global_min E=-193.766468790 Eh optimizer converged in 7 steps
H       -0.00000000      -0.00000000      -3.02405913
C        0.00000000       0.00000000      -1.92139001
N        0.00000000       0.00000000      -0.75881941
H        0.00000000       0.00000000       0.95827246
F       -0.00000000      -0.00000000       1.93863158
5
BP86/aug-cc-pVDZ global_min E=-193.829696388 Eh optimizer converged in 7 steps
H       -0.00000000       0.00000000      -3.03630329
C       -0.00000000       0.00000000      -1.93134680
N        0.00000000      -0.00000000      -0.76666806
H        0.00000000      -0.00000000       0.96863621
F        0.00000000       0.00000000       1.94967269
5
BLYP/aug-cc-pVDZ global_min E=-193.799525714 Eh optimizer converged in 7 steps
H       -0.00000000       0.00000000      -3.05051705
C       -0.00000000       0.00000000      -1.94773601
N        0.00000000      -0.00000000      -0.78340677
H        0.00000000      -0.00000000       0.98486883
F        0.00000000      -0.00000000       1.96507819
5
B97/aug-cc-pVDZ global_min E=-193.765182522 Eh NOT converged: hit 1500-step cap, Hessian run anyway
H       -0.00000000       0.00000000      -8.46554368
C        0.00000000      -0.00000000      -7.36754530
N        0.00000000      -0.00000000      -6.21153946
H        0.00000000      -0.00000000      -4.41153132
F        0.00000000      -0.00000000      -3.44859460
5
PBE/aug-cc-pVTZ global_min E=-193.670635650 Eh optimizer converged in 7 steps
H       -0.00000000      -0.00000000      -3.02624122
C       -0.00000000      -0.00000000      -1.92576600
N        0.00000000       0.00000000      -0.77151801
H        0.00000000       0.00000000       0.96639145
F       -0.00000000      -0.00000000       1.94393527
5
PW91/aug-cc-pVTZ global_min E=-193.817315141 Eh optimizer converged in 7 steps
H        0.00000000       0.00000000      -3.01843270
C       -0.00000000       0.00000000      -1.91975619
N       -0.00000000      -0.00000000      -0.76729994
H       -0.00000000      -0.00000000       0.96041255
F        0.00000000       0.00000000       1.93782965
5
BP86/aug-cc-pVTZ global_min E=-193.879951611 Eh optimizer converged in 7 steps
H       -0.00000000      -0.00000000      -3.02825163
C        0.00000000      -0.00000000      -1.92783721
N        0.00000000      -0.00000000      -0.77357856
H       -0.00000000       0.00000000       0.96785948
F        0.00000000      -0.00000000       1.94650961
5
BLYP/aug-cc-pVTZ global_min E=-193.853413910 Eh optimizer converged in 7 steps
H        0.00000000      -0.00000000      -3.04440634
C       -0.00000000      -0.00000000      -1.94705805
N       -0.00000000      -0.00000000      -0.79344591
H        0.00000000       0.00000000       0.98690621
F       -0.00000000       0.00000000       1.96469220
5
B97/aug-cc-pVTZ global_min E=-193.813404856 Eh NOT converged: hit 1500-step cap, Hessian run anyway
H        0.00010696      -0.00015749      -5.23315377
C       -0.00001300       0.00001919      -4.13951315
N       -0.00015708       0.00023140      -2.99343612
H       -0.00008062       0.00011876      -1.19672809
F        0.00003164      -0.00004661      -0.23564699
5
PBE/aug-cc-pVQZ global_min E=-193.685342555 Eh optimizer converged in 17 steps
H        0.00000000      -0.00000000      -2.95067976
C       -0.00000000       0.00000000      -1.85029070
N       -0.00000001       0.00000000      -0.69675128
H       -0.00000000       0.00000000       1.04392273
F        0.00000000      -0.00000000       2.02032512
5
PW91/aug-cc-pVQZ global_min E=-193.832262880 Eh optimizer converged in 7 steps
H        0.00000000      -0.00000000      -3.01944286
C       -0.00000000      -0.00000000      -1.92087678
N       -0.00000000      -0.00000000      -0.76908333
H       -0.00000000       0.00000000       0.96251560
F        0.00000000       0.00000000       1.93863943
5
BP86/aug-cc-pVQZ global_min E=-193.894622779 Eh optimizer converged in 7 steps
H       -0.00000000       0.00000000      -3.02883941
C        0.00000000      -0.00000000      -1.92849143
N        0.00000000      -0.00000000      -0.77490019
H        0.00000000      -0.00000000       0.96984113
F       -0.00000000       0.00000000       1.94714440
5
BLYP/aug-cc-pVQZ global_min E=-193.868283189 Eh optimizer converged in 7 steps
H       -0.00000000      -0.00000000      -3.04477004
C        0.00000000      -0.00000000      -1.94755698
N        0.00000000       0.00000000      -0.79465712
H        0.00000000       0.00000000       0.98870847
F       -0.00000000      -0.00000000       1.96505963
5
B97/aug-cc-pVQZ global_min E=-193.827495084 Eh NOT finished: killed after 358 steps
H        0.00035200      -0.00012200      -3.73478800
C       -0.00005500       0.00001900      -2.64114800
N       -0.00041700       0.00014500      -1.49591600
H       -0.00014100       0.00004900       0.30463400
F        0.00021700      -0.00007500       1.26446400
5
PBE/aug-cc-pVDZ local_min E=-193.612432820 Eh optimizer converged in 15 steps
H        0.08004172       0.08830331       0.00000000
C       -1.02847030       0.02568917       0.00000000
N       -2.19557401      -0.04846092      -0.00000000
H        2.73018254      -0.66135281      -0.00000000
F        2.13847508       0.09198532       0.00000000
5
PW91/aug-cc-pVDZ local_min E=-193.757024011 Eh optimizer converged in 36 steps
H        0.08418967       0.08320699       0.00000000
C       -1.02301019       0.02823595      -0.00000000
N       -2.18905938      -0.03781175      -0.00000000
H        2.73484200      -0.65245165      -0.00000000
F        2.12949055       0.08939703      -0.00000000
5
BP86/aug-cc-pVDZ local_min E=-193.820680623 Eh optimizer converged in 25 steps
H        0.08377099       0.09630913       0.00000000
C       -1.02500536       0.02758287       0.00000000
N       -2.19213239      -0.05319260       0.00000000
H        2.73225333      -0.67402660      -0.00000000
F        2.15773878       0.09333715       0.00000000
5
BLYP/aug-cc-pVDZ local_min E=-193.790971098 Eh optimizer converged in 24 steps
H        0.02514731       0.06367772      -0.00000000
C       -1.08132263       0.02746520      -0.00000000
N       -2.24957271      -0.01733437      -0.00000000
H        2.80934943      -0.62914488       0.00000000
F        2.14391059       0.06314617      -0.00000000
5
B97/aug-cc-pVDZ local_min E=-193.757488274 Eh NOT converged: hit 1500-step cap, Hessian run anyway
H        2.66044082       0.18070070       0.00023545
C        1.55987057       0.12485934       0.00004022
N        0.40125406       0.05927060      -0.00016994
H        5.44541315      -0.49713600       0.00012149
F        4.77681672       0.17239715       0.00054368
5
PBE/aug-cc-pVTZ local_min E=-193.661402814 Eh optimizer converged in 26 steps
H        0.09648509       0.10395065       0.00000000
C       -1.00679191       0.03600963      -0.00000000
N       -2.16320155      -0.04325335      -0.00000000
H        2.75510076      -0.66232523       0.00000000
F        2.16762493       0.09186772       0.00000000
5
PW91/aug-cc-pVTZ local_min E=-193.807794381 Eh optimizer converged in 35 steps
H        0.10300964       0.10308688       0.00000000
C       -0.99873797       0.03773569       0.00000000
N       -2.15352955      -0.03903834       0.00000000
H        2.74466059      -0.66833000      -0.00000000
F        2.16063451       0.08763625      -0.00000000
5
BP86/aug-cc-pVTZ local_min E=-193.870717237 Eh optimizer converged in 24 steps
H        0.07293689       0.10365979       0.00000000
C       -1.02990173       0.02958854       0.00000000
N       -2.18585688      -0.05609324      -0.00000000
H        2.73539674      -0.67260958      -0.00000000
F        2.16124190       0.09287066       0.00000000
5
BLYP/aug-cc-pVTZ local_min E=-193.844777378 Eh optimizer converged in 49 steps
H        0.03470862       0.09497798      -0.00000000
C       -1.06471798       0.03744419      -0.00000000
N       -2.22083185      -0.02997984      -0.00000000
H        2.79653625      -0.62382172       0.00000000
F        2.15858297       0.09196370      -0.00000000
5
B97/aug-cc-pVTZ local_min E=-193.805444825 Eh optimizer converged in 97 steps
H        0.03894547       0.11338819      -0.00000000
C       -1.05793769       0.10896715      -0.00000000
N       -2.20814708       0.09835057       0.00000000
H        2.77679305      -0.72989323      -0.00000000
F        2.16103057      -0.01372345       0.00000000
5
PBE/aug-cc-pVQZ local_min E=-193.676237088 Eh optimizer converged in 33 steps
H        0.09206793       0.10504883       0.00000000
C       -1.01112595       0.03005761       0.00000000
N       -2.16623690      -0.05741677       0.00000000
H        2.74756720      -0.66773264       0.00000000
F        2.16014763       0.08555669       0.00000000
5
PW91/aug-cc-pVQZ local_min E=-193.822927937 Eh optimizer converged in 21 steps
H        0.08309195       0.10431525      -0.00000000
C       -1.01832926       0.02870235      -0.00000000
N       -2.17162355      -0.05958630      -0.00000000
H        2.72559325      -0.66520278       0.00000000
F        2.13706229       0.08625093      -0.00000000
5
BP86/aug-cc-pVQZ local_min E=-193.885525376 Eh optimizer converged in 25 steps
H        0.07324702       0.11104962      -0.00000000
C       -1.02950289       0.02797520      -0.00000000
N       -2.18396731      -0.06804443       0.00000000
H        2.72867039      -0.67749893       0.00000000
F        2.15887008       0.09006707      -0.00000000
5
BLYP/aug-cc-pVQZ local_min E=-193.859770577 Eh optimizer converged in 28 steps
H        0.03132841       0.08864520      -0.00000000
C       -1.06841256       0.02869377      -0.00000000
N       -2.22362383      -0.04192290       0.00000000
H        2.78841227      -0.64444663       0.00000000
F        2.15105838       0.07049234      -0.00000000
5
B97/aug-cc-pVQZ local_min E=-193.819662167 Eh optimizer converged in 48 steps
H        0.08586708       0.09783447       0.00000000
C       -1.00939117       0.03065681       0.00000000
N       -2.15619908      -0.04673867      -0.00000000
H        2.85434673      -0.63536514      -0.00000000
F        2.21066387       0.05473258       0.00000000
