5
PBE/aug-cc-pVDZ global_min E=-2667.672075640 Eh optimizer converged in 8 steps
H       -0.00000000     -0.00000000      4.68323655
C       -0.00000000      0.00000000      3.60076478
N       -0.00000000      0.00000000      2.43494862
H        0.00000000     -0.00000000      0.42728212
Br       0.00000000     -0.00000000     -1.02953456
5
PW91/aug-cc-pVDZ global_min E=-2668.281226280 Eh optimizer converged in 8 steps
H        0.00000000     -0.00000000      4.67068918
C       -0.00000000     -0.00000000      3.59002801
N        0.00000000     -0.00000000      2.42581776
H       -0.00000000     -0.00000000      0.43809138
Br       0.00000000      0.00000000     -1.01876903
5
BP86/aug-cc-pVDZ global_min E=-2668.448770790 Eh optimizer converged in 12 steps
H        0.00000000      0.00000000      4.68618881
C        0.00000000      0.00000000      3.60326533
N        0.00000000      0.00000000      2.43699259
H       -0.00000000     -0.00000000      0.42579556
Br      -0.00000000     -0.00000000     -1.03301855
5
BLYP/aug-cc-pVDZ global_min E=-2668.176093540 Eh optimizer converged in 10 steps
H        0.00000000      0.00000000      4.73546311
C        0.00000000      0.00000000      3.65478133
N        0.00000000     -0.00000000      2.48866403
H       -0.00000000     -0.00000000      0.37406172
Br      -0.00000000     -0.00000000     -1.08292856
5
B97/aug-cc-pVDZ global_min E=-2668.016991760 Eh optimizer converged in 8 steps
H        0.00000000      0.00000000      4.73727302
C        0.00000000      0.00000000      3.66123869
N       -0.00000000     -0.00000000      2.50364757
H       -0.00000000     -0.00000000      0.35829445
Br       0.00000000     -0.00000000     -1.08273052
5
PBE/aug-cc-pVTZ global_min E=-2667.767434810 Eh optimizer converged in 7 steps; geometry from post-opt array
H        0.00000000     -0.00000000      4.68314186
C        0.00000000     -0.00000000      3.60765700
N        0.00000000      0.00000000      2.45170464
H       -0.00000000     -0.00000000      0.41566444
Br      -0.00000000     -0.00000000     -1.03360925
5
PW91/aug-cc-pVTZ global_min E=-2668.378483950 Eh optimizer converged in 8 steps; geometry from post-opt array
H        0.00000000     -0.00000000      4.67179332
C        0.00000000     -0.00000000      3.59819084
N        0.00000000     -0.00000000      2.44404221
H       -0.00000000     -0.00000000      0.42483662
Br      -0.00000000     -0.00000000     -1.02386059
5
BP86/aug-cc-pVTZ global_min E=-2668.545904590 Eh optimizer converged in 7 steps; geometry from post-opt array
H       -0.00000000      0.00000000      4.68618698
C       -0.00000000     -0.00000000      3.61090867
N       -0.00000000     -0.00000000      2.45496598
H        0.00000000      0.00000000      0.41292994
Br       0.00000000      0.00000000     -1.03729343
5
BLYP/aug-cc-pVTZ global_min E=-2668.276411880 Eh optimizer converged in 8 steps; geometry from post-opt array
H        0.00000000      0.00000000      4.73781241
C       -0.00000000     -0.00000000      3.66573020
N       -0.00000000     -0.00000000      2.51030115
H       -0.00000000     -0.00000000      0.35783436
Br       0.00000000     -0.00000000     -1.08999150
5
B97/aug-cc-pVTZ global_min E=-2668.112570670 Eh optimizer converged in 7 steps; geometry from post-opt array
H       -0.00000000     -0.00000000      4.73623181
C       -0.00000000     -0.00000000      3.66754820
N        0.00000000      0.00000000      2.51983160
H        0.00000000      0.00000000      0.34756584
Br      -0.00000000     -0.00000000     -1.08647392
5
PBE/aug-cc-pVQZ global_min E=-2667.776738800 Eh optimizer converged in 7 steps
H       -0.00000000      0.00000000      4.68336692
C       -0.00000000     -0.00000000      3.60811447
N        0.00000000     -0.00000000      2.45289998
H        0.00000000      0.00000000      0.41474523
Br       0.00000000      0.00000000     -1.03393973
5
PW91/aug-cc-pVQZ global_min E=-2668.387820930 Eh optimizer converged in 8 steps
H        0.00000000      0.00000000      4.67212920
C        0.00000000     -0.00000000      3.59877058
N       -0.00000000     -0.00000000      2.44532845
H        0.00000000      0.00000000      0.42381001
Br       0.00000000      0.00000000     -1.02431574
5
BP86/aug-cc-pVQZ global_min E=-2668.555285750 Eh optimizer converged in 7 steps
H        0.00000000     -0.00000000      4.68791080
C        0.00000000      0.00000000      3.61281731
N       -0.00000000      0.00000000      2.45756563
H       -0.00000000     -0.00000000      0.41046640
Br       0.00000000     -0.00000000     -1.03898593
5
BLYP/aug-cc-pVQZ global_min E=-2668.285830890 Eh optimizer converged in 8 steps
H        0.00000000      0.00000000      4.73938872
C       -0.00000000     -0.00000000      3.66760615
N       -0.00000000     -0.00000000      2.51291172
H        0.00000000     -0.00000000      0.35539103
Br       0.00000000      0.00000000     -1.09158876
5
B97/aug-cc-pVQZ global_min E=-2668.121856330 Eh optimizer converged in 7 steps
H       -0.00000000     -0.00000000      4.73675766
C       -0.00000000     -0.00000000      3.66830664
N        0.00000000     -0.00000000      2.52146661
H        0.00000000      0.00000000      0.34608853
Br       0.00000000      0.00000000     -1.08703152
5
PBE/aug-cc-pVDZ local_min E=-2667.667811270 Eh optimizer converged in 15 steps
H        1.69409190     -0.07250772      0.00000000
C        2.78032870     -0.03491638      0.00000000
N        3.94833702      0.00901574     -0.00000000
H       -1.23212569      1.40741975     -0.00000000
Br      -1.13059237     -0.02969323      0.00000000
5
PW91/aug-cc-pVDZ local_min E=-2668.276773960 Eh optimizer converged in 21 steps
H        1.68679208     -0.06972789      0.00000000
C        2.77146679     -0.03311008      0.00000000
N        3.93796930      0.00978851     -0.00000000
H       -1.22343200      1.40518344      0.00000000
Br      -1.12132414     -0.03098810      0.00000000
5
BP86/aug-cc-pVDZ local_min E=-2668.444612960 Eh optimizer converged in 21 steps
H        1.72363035     -0.07077782     -0.00000000
C        2.81028126     -0.04004896     -0.00000000
N        3.97898659     -0.00378921      0.00000000
H       -1.26991456      1.41315818      0.00000000
Br      -1.15287250     -0.02421036     -0.00000000
5
BLYP/aug-cc-pVDZ local_min E=-2668.172534140 Eh optimizer converged in 20 steps
H        1.77749353     -0.06397833      0.00000000
C        2.86106003     -0.04810130      0.00000000
N        4.02937934     -0.02856869     -0.00000000
H       -1.33412564      1.42218369     -0.00000000
Br      -1.19208807     -0.01621315      0.00000000
5
B97/aug-cc-pVDZ local_min E=-2668.013538770 Eh optimizer converged in 24 steps
H        1.74945942     -0.08433198     -0.00000000
C        2.82763256     -0.04502325     -0.00000000
N        3.98657579      0.00005616      0.00000000
H       -1.28750032      1.41270871      0.00000000
Br      -1.17275069     -0.01433513     -0.00000000
5
PBE/aug-cc-pVTZ local_min E=-2667.763473340 Eh optimizer converged in 18 steps; geometry from post-opt array
H        1.70150985     -0.07835360     -0.00000000
C        2.77960207     -0.03538813     -0.00000000
N        3.93713473      0.01459952      0.00000000
H       -1.22731251      1.40459782      0.00000000
Br      -1.13240611     -0.02635383     -0.00000000
5
PW91/aug-cc-pVTZ local_min E=-2668.374406310 Eh optimizer converged in 18 steps; geometry from post-opt array
H        1.69504053     -0.07639406     -0.00000000
C        2.77132436     -0.03381413     -0.00000000
N        3.92708297      0.01576610      0.00000000
H       -1.21905602      1.40237404      0.00000000
Br      -1.12386943     -0.02726375     -0.00000000
5
BP86/aug-cc-pVTZ local_min E=-2668.542076250 Eh optimizer converged in 20 steps; geometry from post-opt array
H        1.73342042     -0.07325207     -0.00000000
C        2.81138855     -0.04016221     -0.00000000
N        3.96930976     -0.00125890      0.00000000
H       -1.26715788      1.40923934      0.00000000
Br      -1.15637033     -0.02103118     -0.00000000
5
BLYP/aug-cc-pVTZ local_min E=-2668.273113640 Eh optimizer converged in 20 steps; geometry from post-opt array
H        1.79179924     -0.07529475     -0.00000000
C        2.86560424     -0.04989604     -0.00000000
N        4.02272878     -0.01965473      0.00000000
H       -1.33119209      1.42016521      0.00000000
Br      -1.20316209     -0.01135268     -0.00000000
5
B97/aug-cc-pVTZ local_min E=-2668.109340310 Eh optimizer converged in 19 steps; geometry from post-opt array
H        1.76321808     -0.09456680      0.00000000
C        2.83288278     -0.04635858      0.00000000
N        3.98124952      0.00864796     -0.00000000
H       -1.28461545      1.41070741     -0.00000000
Br      -1.17437460     -0.01016274     -0.00000000
5
PBE/aug-cc-pVQZ local_min E=-2667.772838750 Eh optimizer converged in 13 steps
H        1.70344622     -0.09908379      0.00000000
C        2.78069978     -0.03798887      0.00000000
N        3.93640619      0.03237297     -0.00000000
H       -1.21848375      1.40679688     -0.00000000
Br      -1.14279188     -0.02477879      0.00000000
5
PW91/aug-cc-pVQZ local_min E=-2668.383811010 Eh optimizer converged in 18 steps
H        1.69648575     -0.09543710      0.00000000
C        2.77198372     -0.03611365     -0.00000000
N        3.92604968      0.03231325     -0.00000000
H       -1.20998556      1.40426287     -0.00000000
Br      -1.13352704     -0.02599211      0.00000000
5
BP86/aug-cc-pVQZ local_min E=-2668.551537540 Eh optimizer converged in 20 steps
H        1.73959252     -0.09113346     -0.00000000
C        2.81712981     -0.04320170     -0.00000000
N        3.97363934      0.01219381      0.00000000
H       -1.26502104      1.41209903     -0.00000000
Br      -1.16926932     -0.01875905     -0.00000000
5
BLYP/aug-cc-pVQZ local_min E=-2668.282617230 Eh optimizer converged in 20 steps
H        1.79656398     -0.09184212      0.00000000
C        2.86996133     -0.05249347     -0.00000000
N        4.02580358     -0.00680539     -0.00000000
H       -1.32858465      1.42255807     -0.00000000
Br      -1.21392623     -0.00947270      0.00000000
5
B97/aug-cc-pVQZ local_min E=-2668.118692900 Eh optimizer converged in 20 steps
H        1.76507593     -0.11946981      0.00000000
C        2.83353873     -0.04944304      0.00000000
N        3.97959433      0.02962413     -0.00000000
H       -1.27668428      1.41365955      0.00000000
Br      -1.18688742     -0.00785664     -0.00000000
5
PBE/aug-cc-pVDZ xlocal_min E=-2667.667012750 Eh optimizer converged in 11 steps
H        0.00000000      0.00000000      4.54652636
C        0.00000000      0.00000000      3.46430918
N       -0.00000000     -0.00000000      2.29641558
H       -0.00000000      0.00000000     -2.41072241
Br      -0.00000000      0.00000000     -0.96922248
5
PW91/aug-cc-pVDZ xlocal_min E=-2668.276038730 Eh optimizer converged in 10 steps
H        0.00000000      0.00000000      4.53182050
C        0.00000000      0.00000000      3.45143378
N       -0.00000000     -0.00000000      2.28510426
H       -0.00000000     -0.00000000     -2.39742121
Br      -0.00000000     -0.00000000     -0.95668865
5
BP86/aug-cc-pVDZ xlocal_min E=-2668.443702190 Eh optimizer converged in 9 steps
H       -0.00000000      0.00000000      4.57457105
C        0.00000000     -0.00000000      3.49188431
N        0.00000000     -0.00000000      2.32350515
H        0.00000000     -0.00000000     -2.43896447
Br       0.00000000     -0.00000000     -0.99615498
5
BLYP/aug-cc-pVDZ xlocal_min E=-2668.171719160 Eh optimizer converged in 11 steps
H        0.00000000     -0.00000000      4.61174590
C       -0.00000000      0.00000000      3.53132614
N       -0.00000000      0.00000000      2.36352251
H       -0.00000000      0.00000000     -2.47942719
Br      -0.00000000      0.00000000     -1.03336748
5
B97/aug-cc-pVDZ xlocal_min E=-2668.012732910 Eh optimizer converged in 8 steps
H       -0.00000000      0.00000000      4.58131055
C        0.00000000      0.00000000      3.50558403
N        0.00000000     -0.00000000      2.34651384
H        0.00000000     -0.00000000     -2.44827260
Br       0.00000000     -0.00000000     -1.01643884
5
PBE/aug-cc-pVTZ xlocal_min E=-2667.762552650 Eh optimizer converged in 9 steps; geometry from post-opt array
H       -0.00000000     -0.00000000      4.56837850
C        0.00000000     -0.00000000      3.49324591
N        0.00000000      0.00000000      2.33548464
H       -0.00000000      0.00000000     -2.43723147
Br       0.00000000      0.00000000     -1.00260144
5
PW91/aug-cc-pVTZ xlocal_min E=-2668.373503480 Eh optimizer converged in 9 steps; geometry from post-opt array
H        0.00000000     -0.00000000      4.55788704
C        0.00000000      0.00000000      3.48466580
N       -0.00000000      0.00000000      2.32869500
H        0.00000000      0.00000000     -2.42803736
Br       0.00000000      0.00000000     -0.99468309
5
BP86/aug-cc-pVTZ xlocal_min E=-2668.541001850 Eh optimizer converged in 14 steps; geometry from post-opt array
H       -0.00000000      0.00000000      4.62192840
C        0.00000000      0.00000000      3.54701590
N        0.00000000     -0.00000000      2.38921941
H        0.00000000      0.00000000     -2.49098132
Br       0.00000000     -0.00000000     -1.05612559
5
BLYP/aug-cc-pVTZ xlocal_min E=-2668.272293120 Eh optimizer converged in 9 steps; geometry from post-opt array
H        0.00000000      0.00000000      4.64533111
C        0.00000000     -0.00000000      3.57358885
N       -0.00000000     -0.00000000      2.41671431
H        0.00000000     -0.00000000     -2.51819091
Br       0.00000000     -0.00000000     -1.08063244
5
B97/aug-cc-pVTZ xlocal_min E=-2668.108453640 Eh optimizer converged in 17 steps; geometry from post-opt array
H        0.00000000      0.00000000      4.61658843
C        0.00000000      0.00000000      3.54831461
N       -0.00000000     -0.00000000      2.39929619
H       -0.00000000     -0.00000000     -2.47762230
Br      -0.00000000     -0.00000000     -1.05244574
5
PBE/aug-cc-pVQZ xlocal_min E=-2667.771904870 Eh optimizer converged in 10 steps
H        0.00000000      0.00000000      4.57013042
C       -0.00000000      0.00000000      3.49524980
N       -0.00000000     -0.00000000      2.33823399
H       -0.00000000      0.00000000     -2.43913739
Br      -0.00000000     -0.00000000     -1.00503112
5
PW91/aug-cc-pVQZ xlocal_min E=-2668.382891970 Eh optimizer converged in 10 steps
H       -0.00000000      0.00000000      4.55892336
C       -0.00000000      0.00000000      3.48596449
N        0.00000000     -0.00000000      2.33070942
H        0.00000000     -0.00000000     -2.42925509
Br      -0.00000000      0.00000000     -0.99641526
5
BP86/aug-cc-pVQZ xlocal_min E=-2668.550465320 Eh optimizer converged in 10 steps
H       -0.00000000      0.00000000      4.63315506
C       -0.00000000      0.00000000      3.55843032
N        0.00000000     -0.00000000      2.40132956
H        0.00000000      0.00000000     -2.50228146
Br       0.00000000      0.00000000     -1.06801375
5
BLYP/aug-cc-pVQZ xlocal_min E=-2668.281783030 Eh optimizer converged in 10 steps
H        0.00000000     -0.00000000      4.65301416
C        0.00000000     -0.00000000      3.58157729
N       -0.00000000     -0.00000000      2.42544096
H        0.00000000      0.00000000     -2.52599647
Br       0.00000000     -0.00000000     -1.08908910
5
B97/aug-cc-pVQZ xlocal_min E=-2668.117790480 Eh optimizer converged in 17 steps
H        0.00000000     -0.00000000      4.64601256
C        0.00000000      0.00000000      3.57797791
N       -0.00000000      0.00000000      2.42984009
H        0.00000000      0.00000000     -2.45572251
Br      -0.00000000      0.00000000     -1.03136502
