5
PBE/aug-cc-pVDZ global_min E=-553.949622753 Eh optimizer converged in 7 steps
H        0.00000000     -0.00000000      3.82815139
C        0.00000000     -0.00000000      2.74565599
N       -0.00000000      0.00000000      1.58026523
H       -0.00000000     -0.00000000     -0.35940577
Cl       0.00000000     -0.00000000     -1.68044345
5
PW91/aug-cc-pVDZ global_min E=-554.203600546 Eh optimizer converged in 8 steps
H        0.00000000      0.00000000      3.81690063
C        0.00000000      0.00000000      2.73621609
N       -0.00000000      0.00000000      1.57242369
H       -0.00000000     -0.00000000     -0.34981682
Cl      -0.00000000     -0.00000000     -1.67104257
5
BP86/aug-cc-pVDZ global_min E=-554.297496756 Eh optimizer converged in 7 steps
H       -0.00000000      0.00000000      3.83108082
C       -0.00000000     -0.00000000      2.74813696
N        0.00000000     -0.00000000      1.58228033
H        0.00000000      0.00000000     -0.36080104
Cl      -0.00000000      0.00000000     -1.68398418
5
BLYP/aug-cc-pVDZ global_min E=-554.226095534 Eh optimizer converged in 8 steps
H        0.00000000     -0.00000000      3.86865690
C        0.00000000     -0.00000000      2.78794438
N       -0.00000000      0.00000000      1.62229516
H       -0.00000000     -0.00000000     -0.40128832
Cl       0.00000000     -0.00000000     -1.72175860
5
B97/aug-cc-pVDZ global_min E=-554.162117733 Eh optimizer converged in 7 steps
H        0.00000000      0.00000000      3.87000385
C       -0.00000000      0.00000000      2.79392402
N       -0.00000000     -0.00000000      1.63677516
H        0.00000000     -0.00000000     -0.41403684
Cl       0.00000000     -0.00000000     -1.72361923
5
PBE/aug-cc-pVTZ global_min E=-553.988453303 Eh optimizer converged in 7 steps
H       -0.00000000     -0.00000000      3.82847039
C        0.00000000      0.00000000      2.75296837
N        0.00000000      0.00000000      1.59738798
H       -0.00000000      0.00000000     -0.37349686
Cl      -0.00000000      0.00000000     -1.68284763
5
PW91/aug-cc-pVTZ global_min E=-554.244188242 Eh optimizer converged in 7 steps
H       -0.00000000      0.00000000      3.81844405
C       -0.00000000     -0.00000000      2.74482335
N       -0.00000000     -0.00000000      1.59103893
H        0.00000000     -0.00000000     -0.36557141
Cl       0.00000000     -0.00000000     -1.67447527
5
BP86/aug-cc-pVTZ global_min E=-554.337781631 Eh optimizer converged in 7 steps
H        0.00000000     -0.00000000      3.83137786
C       -0.00000000     -0.00000000      2.75608323
N       -0.00000000     -0.00000000      1.60050691
H        0.00000000      0.00000000     -0.37591157
Cl       0.00000000      0.00000000     -1.68651031
5
BLYP/aug-cc-pVTZ global_min E=-554.269886161 Eh optimizer converged in 13 steps
H       -0.00000000      0.00000000      3.87140327
C        0.00000000      0.00000000      2.79928403
N        0.00000000     -0.00000000      1.64425084
H       -0.00000000     -0.00000000     -0.42003779
Cl      -0.00000000     -0.00000000     -1.72703733
5
B97/aug-cc-pVTZ global_min E=-554.200008936 Eh optimizer converged in 7 steps
H       -0.00000000     -0.00000000      3.86851222
C        0.00000000      0.00000000      2.79976818
N        0.00000000      0.00000000      1.65243348
H        0.00000000     -0.00000000     -0.42667127
Cl      -0.00000000     -0.00000000     -1.72453107
5
PBE/aug-cc-pVQZ global_min E=-553.998643172 Eh optimizer converged in 7 steps
H       -0.00000000     -0.00000000      3.83061374
C       -0.00000000      0.00000000      2.75534421
N        0.00000000      0.00000000      1.60048313
H        0.00000000     -0.00000000     -0.37688260
Cl      -0.00000000     -0.00000000     -1.68453626
5
PW91/aug-cc-pVQZ global_min E=-554.254511134 Eh optimizer converged in 7 steps
H        0.00000000     -0.00000000      3.82104517
C       -0.00000000     -0.00000000      2.74766951
N       -0.00000000      0.00000000      1.59456985
H        0.00000000      0.00000000     -0.36940580
Cl       0.00000000     -0.00000000     -1.67662801
5
BP86/aug-cc-pVQZ global_min E=-554.348065571 Eh optimizer converged in 7 steps
H        0.00000000     -0.00000000      3.83452102
C        0.00000000     -0.00000000      2.75940994
N       -0.00000000      0.00000000      1.60450871
H       -0.00000000     -0.00000000     -0.38027525
Cl      -0.00000000     -0.00000000     -1.68911906
5
BLYP/aug-cc-pVQZ global_min E=-554.280362404 Eh optimizer converged in 7 steps
H       -0.00000000     -0.00000000      3.87395459
C        0.00000000     -0.00000000      2.80213124
N        0.00000000     -0.00000000      1.64781996
H       -0.00000000      0.00000000     -0.42389987
Cl      -0.00000000      0.00000000     -1.72915222
5
B97/aug-cc-pVQZ global_min E=-554.210046154 Eh optimizer converged in 6 steps
H        0.00000000      0.00000000      3.87094052
C       -0.00000000      0.00000000      2.80243121
N       -0.00000000      0.00000000      1.65595309
H       -0.00000000      0.00000000     -0.43069499
Cl       0.00000000     -0.00000000     -1.72625592
5
PBE/aug-cc-pVDZ local_min E=-553.944134496 Eh optimizer converged in 20 steps
H        0.83003886     -0.09717830      0.00000000
C        1.91606489     -0.05657990      0.00000000
N        3.08387145     -0.00835916     -0.00000000
H       -2.01142004      1.24377852     -0.00000000
Cl      -1.82349279     -0.04541096      0.00000000
5
PW91/aug-cc-pVDZ local_min E=-554.197887633 Eh optimizer converged in 20 steps
H        0.82316586     -0.09361157     -0.00000000
C        1.90766555     -0.05487621     -0.00000000
N        3.07400571     -0.00864930      0.00000000
H       -2.00376273      1.24161846      0.00000000
Cl      -1.81410543     -0.04657834     -0.00000000
5
BP86/aug-cc-pVDZ local_min E=-554.292158769 Eh optimizer converged in 21 steps
H        0.85456422     -0.09633559     -0.00000000
C        1.94104401     -0.06066751      0.00000000
N        3.10950625     -0.01800079      0.00000000
H       -2.04250002      1.24802953     -0.00000000
Cl      -1.84245704     -0.04101289     -0.00000000
5
BLYP/aug-cc-pVDZ local_min E=-554.221330923 Eh optimizer converged in 25 steps
H        0.90088675     -0.08592375     -0.00000000
C        1.98448242     -0.06719691     -0.00000000
N        3.15269898     -0.04353166      0.00000000
H       -2.10441809      1.25316961      0.00000000
Cl      -1.86931685     -0.03163935     -0.00000000
5
B97/aug-cc-pVDZ local_min E=-554.157502562 Eh optimizer converged in 21 steps
H        0.88399183     -0.10961487      0.00000000
C        1.96199079     -0.06586376      0.00000000
N        3.12067896     -0.01507080     -0.00000000
H       -2.06386444      1.24956830     -0.00000000
Cl      -1.86053435     -0.03199144      0.00000000
5
PBE/aug-cc-pVTZ local_min E=-553.983320784 Eh optimizer converged in 20 steps
H        0.84059375     -0.11230835     -0.00000000
C        1.91789819     -0.05832639     -0.00000000
N        3.07476628      0.00474003      0.00000000
H       -2.00186942      1.24142461      0.00000000
Cl      -1.83523062     -0.04050117      0.00000000
5
PW91/aug-cc-pVTZ local_min E=-554.238911234 Eh optimizer converged in 17 steps
H        0.83408986     -0.10872495      0.00000000
C        1.90967067     -0.05656704     -0.00000000
N        3.06485359      0.00455022     -0.00000000
H       -1.99359730      1.23911278     -0.00000000
Cl      -1.82673985     -0.04169632      0.00000000
5
BP86/aug-cc-pVTZ local_min E=-554.332804112 Eh optimizer converged in 17 steps
H        0.86677285     -0.10638976     -0.00000000
C        1.94412886     -0.06167411     -0.00000000
N        3.10149373     -0.00909106      0.00000000
H       -2.03443177      1.24481250      0.00000000
Cl      -1.85536400     -0.03630289     -0.00000000
5
BLYP/aug-cc-pVTZ local_min E=-554.265425413 Eh optimizer converged in 19 steps
H        0.91671941     -0.10798152     -0.00000000
C        1.99009099     -0.07012924     -0.00000000
N        3.14673554     -0.02526346     -0.00000000
H       -2.09343469      1.25224017     -0.00000000
Cl      -1.89059825     -0.02624561      0.00000000
5
B97/aug-cc-pVTZ local_min E=-554.195690395 Eh optimizer converged in 19 steps
H        0.89459466     -0.12881237      0.00000000
C        1.96354196     -0.06857795      0.00000000
N        3.11114407      0.00039306     -0.00000000
H       -2.05729773      1.24802792     -0.00000000
Cl      -1.87356953     -0.02569040      0.00000000
5
PBE/aug-cc-pVQZ local_min E=-553.993574810 Eh optimizer converged in 17 steps
H        0.84224453     -0.13519898      0.00000000
C        1.91846018     -0.06129196      0.00000000
N        3.07313891      0.02411324     -0.00000000
H       -1.99203683      1.24415396     -0.00000000
Cl      -1.84552501     -0.03874272      0.00000000
5
PW91/aug-cc-pVQZ local_min E=-554.249312498 Eh optimizer converged in 18 steps
H        0.83571089     -0.13482883     -0.00000000
C        1.90999592     -0.06002724     -0.00000000
N        3.06282971      0.02652929      0.00000000
H       -1.98274312      1.24229363     -0.00000000
Cl      -1.83757718     -0.03967139     -0.00000000
5
BP86/aug-cc-pVQZ local_min E=-554.343175985 Eh optimizer converged in 22 steps
H        0.87306391     -0.12900125     -0.00000000
C        1.94962357     -0.06543054     -0.00000000
N        3.10510724      0.00815318      0.00000000
H       -2.03043428      1.24833067     -0.00000000
Cl      -1.86968237     -0.03368368     -0.00000000
5
BLYP/aug-cc-pVQZ local_min E=-554.275984071 Eh optimizer converged in 19 steps
H        0.92242290     -0.13023287     -0.00000000
C        1.99500578     -0.07371788     -0.00000000
N        3.14989387     -0.00817638     -0.00000000
H       -2.08905943      1.25571613      0.00000000
Cl      -1.90420666     -0.02390073     -0.00000000
5
B97/aug-cc-pVQZ local_min E=-554.205795036 Eh optimizer converged in 20 steps
H        0.89683332     -0.16226890      0.00000000
C        1.96375494     -0.07276627      0.00000000
N        3.10805833      0.02853525     -0.00000000
H       -2.04267832      1.25198366     -0.00000000
Cl      -1.88641986     -0.02328815      0.00000000
5
PBE/aug-cc-pVDZ xlocal_min E=-553.942031349 Eh optimizer converged in 9 steps
H        0.00000000      0.00000000      3.91943195
C        0.00000000      0.00000000      2.83716567
N       -0.00000000     -0.00000000      1.66886298
H        0.00000000     -0.00000000     -2.97228241
Cl      -0.00000000     -0.00000000     -1.67030222
5
PW91/aug-cc-pVDZ xlocal_min E=-554.195803244 Eh optimizer converged in 9 steps
H       -0.00000000      0.00000000      3.90405778
C       -0.00000000      0.00000000      2.82361359
N        0.00000000     -0.00000000      1.65686611
H       -0.00000000     -0.00000000     -2.95835173
Cl      -0.00000000      0.00000000     -1.65703542
5
BP86/aug-cc-pVDZ xlocal_min E=n/a Eh substituted: February run collapsed to the bent C-H...Cl minimum (N..Cl 5.0 A, optimizer converged in 160 steps); starting from the PBE/aug-cc-pVDZ halogen-bonded geometry
H        0.00000000      0.00000000      3.91943195
C        0.00000000      0.00000000      2.83716567
N       -0.00000000     -0.00000000      1.66886298
H        0.00000000     -0.00000000     -2.97228241
Cl      -0.00000000     -0.00000000     -1.67030222
5
BLYP/aug-cc-pVDZ xlocal_min E=-554.219414590 Eh optimizer converged in 12 steps
H        0.00000000      0.00000000      4.04379804
C        0.00000000      0.00000000      2.96329203
N       -0.00000000      0.00000000      1.79508563
H       -0.00000000      0.00000000     -3.09948856
Cl      -0.00000000      0.00000000     -1.79417555
5
B97/aug-cc-pVDZ xlocal_min E=-554.155502206 Eh optimizer converged in 7 steps
H        0.00000000      0.00000000      3.95667551
C        0.00000000      0.00000000      2.88093084
N        0.00000000     -0.00000000      1.72152297
H        0.00000000      0.00000000     -3.01428344
Cl       0.00000000     -0.00000000     -1.71772675
5
PBE/aug-cc-pVTZ xlocal_min E=-553.981223440 Eh optimizer converged in 8 steps
H       -0.00000000     -0.00000000      3.95117047
C       -0.00000000     -0.00000000      2.87610771
N        0.00000000      0.00000000      1.71803605
H        0.00000000      0.00000000     -3.00700839
Cl       0.00000000      0.00000000     -1.71546213
5
PW91/aug-cc-pVTZ xlocal_min E=-554.236803835 Eh optimizer converged in 10 steps
H       -0.00000000     -0.00000000      3.94536336
C       -0.00000000      0.00000000      2.87221812
N        0.00000000      0.00000000      1.71593432
H       -0.00000000      0.00000000     -3.00256673
Cl      -0.00000000      0.00000000     -1.71213267
5
BP86/aug-cc-pVTZ xlocal_min E=n/a Eh substituted: February run drifted apart (N..Cl 11.8 A, optimizer converged in 133 steps); starting from the PBE/aug-cc-pVTZ halogen-bonded geometry
H       -0.00000000     -0.00000000      3.95117047
C       -0.00000000     -0.00000000      2.87610771
N        0.00000000      0.00000000      1.71803605
H        0.00000000      0.00000000     -3.00700839
Cl       0.00000000      0.00000000     -1.71546213
5
BLYP/aug-cc-pVTZ xlocal_min E=-554.263610706 Eh optimizer converged in 12 steps
H        0.00000000      0.00000000      4.13786780
C        0.00000000      0.00000000      3.06622801
N       -0.00000000     -0.00000000      1.90904314
H        0.00000000     -0.00000000     -3.19712093
Cl      -0.00000000     -0.00000000     -1.90385698
5
B97/aug-cc-pVTZ xlocal_min E=-554.193720471 Eh optimizer converged in 11 steps
H       -0.00000000      0.00000000      3.98948641
C       -0.00000000      0.00000000      2.92129377
N        0.00000000     -0.00000000      1.77203783
H       -0.00000000      0.00000000     -3.05076437
Cl      -0.00000000      0.00000000     -1.76511224
5
PBE/aug-cc-pVQZ xlocal_min E=-553.991543650 Eh optimizer converged in 8 steps
H        0.00000000     -0.00000000      3.95378448
C        0.00000000      0.00000000      2.87895854
N        0.00000000      0.00000000      1.72164393
H       -0.00000000     -0.00000000     -3.00928062
Cl       0.00000000     -0.00000000     -1.71923320
5
PW91/aug-cc-pVQZ xlocal_min E=-554.247288353 Eh optimizer converged in 9 steps
H        0.00000000      0.00000000      3.94758163
C       -0.00000000      0.00000000      2.87468111
N       -0.00000000      0.00000000      1.71912035
H       -0.00000000     -0.00000000     -3.00445598
Cl      -0.00000000     -0.00000000     -1.71552471
5
BP86/aug-cc-pVQZ xlocal_min E=n/a Eh substituted: February run drifted apart (N..Cl 10.6 A, optimizer converged in 158 steps); starting from the PBE/aug-cc-pVQZ halogen-bonded geometry
H        0.00000000     -0.00000000      3.95378448
C        0.00000000      0.00000000      2.87895854
N        0.00000000      0.00000000      1.72164393
H       -0.00000000     -0.00000000     -3.00928062
Cl       0.00000000     -0.00000000     -1.71923320
5
BLYP/aug-cc-pVQZ xlocal_min E=-554.274240419 Eh optimizer converged in 13 steps
H       -0.00000000      0.00000000      4.15399157
C       -0.00000000     -0.00000000      3.08261166
N        0.00000000     -0.00000000      1.92618471
H       -0.00000000     -0.00000000     -3.21286892
Cl      -0.00000000     -0.00000000     -1.92119532
5
B97/aug-cc-pVQZ xlocal_min E=-554.203884910 Eh optimizer converged in 10 steps
H       -0.00000000     -0.00000000      3.99461109
C        0.00000000      0.00000000      2.92665145
N        0.00000000      0.00000000      1.77829182
H       -0.00000000      0.00000000     -3.05486865
Cl       0.00000000     -0.00000000     -1.77134340
