5
PBE/aug-cc-pVDZ global_min E=-193.698081498 Eh optimizer converged in 8 steps
H        0.00000000      0.00000000     -3.02967313
C        0.00000000      0.00000000     -1.94714037
N       -0.00000000     -0.00000000     -0.78303795
H        0.00000000      0.00000000      0.99104545
F        0.00000000      0.00000000      1.94337615
5
PW91/aug-cc-pVDZ global_min E=-193.843102045 Eh optimizer converged in 7 steps
H        0.00000000      0.00000000     -3.01876340
C        0.00000000     -0.00000000     -1.93802934
N        0.00000000     -0.00000000     -0.77555630
H       -0.00000000      0.00000000      0.98177539
F       -0.00000000      0.00000000      1.93441492
5
BP86/aug-cc-pVDZ global_min E=-193.906167383 Eh optimizer converged in 9 steps
H       -0.00000000     -0.00000000     -3.03195765
C       -0.00000000      0.00000000     -1.94897345
N        0.00000000      0.00000000     -0.78438766
H       -0.00000000      0.00000000      0.99222400
F       -0.00000000     -0.00000000      1.94581322
5
BLYP/aug-cc-pVDZ global_min E=-193.876375192 Eh optimizer converged in 7 steps
H        0.00000000     -0.00000000     -3.04553944
C       -0.00000000      0.00000000     -1.96475252
N       -0.00000000      0.00000000     -0.80056831
H       -0.00000000      0.00000000      1.00763950
F       -0.00000000     -0.00000000      1.96076998
5
B97/aug-cc-pVDZ global_min E=-193.842572923 Eh optimizer converged in 6 steps
H       -0.00000000     -0.00000000     -3.05264722
C       -0.00000000      0.00000000     -1.97646674
N        0.00000000      0.00000000     -0.82055874
H        0.00000000     -0.00000000      1.02872777
F       -0.00000000     -0.00000000      1.96534376
5
PBE/aug-cc-pVTZ global_min E=-193.749915345 Eh optimizer converged in 7 steps
H        0.00000000     -0.00000000     -3.02100971
C        0.00000000     -0.00000000     -1.94548179
N       -0.00000000      0.00000000     -0.79123501
H       -0.00000000      0.00000000      0.99125055
F        0.00000000      0.00000000      1.94174580
5
PW91/aug-cc-pVTZ global_min E=-193.896674326 Eh optimizer converged in 9 steps
H        0.00000000     -0.00000000     -3.01234483
C        0.00000000      0.00000000     -1.93868212
N       -0.00000000      0.00000000     -0.78623566
H       -0.00000000      0.00000000      0.98465673
F       -0.00000000     -0.00000000      1.93494736
5
BP86/aug-cc-pVTZ global_min E=-193.959149922 Eh optimizer converged in 7 steps
H        0.00000000      0.00000000     -3.02236499
C        0.00000000      0.00000000     -1.94703730
N       -0.00000000     -0.00000000     -0.79279331
H       -0.00000000     -0.00000000      0.99214413
F        0.00000000      0.00000000      1.94383659
5
BLYP/aug-cc-pVTZ global_min E=-193.933307825 Eh optimizer converged in 7 steps
H        0.00000000     -0.00000000     -3.03854097
C        0.00000000     -0.00000000     -1.96633406
N       -0.00000000      0.00000000     -0.81276546
H       -0.00000000      0.00000000      1.01084484
F        0.00000000     -0.00000000      1.96208389
5
B97/aug-cc-pVTZ global_min E=-193.893429930 Eh optimizer converged in 6 steps
H       -0.00000000      0.00000000     -3.03862069
C       -0.00000000     -0.00000000     -1.96974883
N       -0.00000000     -0.00000000     -0.82370863
H        0.00000000      0.00000000      1.02356863
F        0.00000000      0.00000000      1.95889446
5
PBE/aug-cc-pVQZ global_min E=-193.764518546 Eh optimizer converged in 7 steps
H       -0.00000000     -0.00000000     -3.02157926
C       -0.00000000     -0.00000000     -1.94628414
N        0.00000000      0.00000000     -0.79276948
H        0.00000000      0.00000000      0.99320260
F       -0.00000000     -0.00000000      1.94173063
5
PW91/aug-cc-pVQZ global_min E=-193.911573187 Eh optimizer converged in 6 steps
H        0.00000000      0.00000000     -3.01338689
C        0.00000000      0.00000000     -1.93997548
N       -0.00000000     -0.00000000     -0.78821931
H       -0.00000000     -0.00000000      0.98704437
F       -0.00000000     -0.00000000      1.93534721
5
BP86/aug-cc-pVQZ global_min E=-193.973801577 Eh optimizer converged in 7 steps
H       -0.00000000      0.00000000     -3.02306860
C        0.00000000      0.00000000     -1.94792945
N        0.00000000      0.00000000     -0.79437918
H       -0.00000000     -0.00000000      0.99425302
F       -0.00000000      0.00000000      1.94388496
5
BLYP/aug-cc-pVQZ global_min E=-193.948227084 Eh optimizer converged in 7 steps
H        0.00000000      0.00000000     -3.03900500
C        0.00000000      0.00000000     -1.96710020
N       -0.00000000     -0.00000000     -0.81426230
H       -0.00000000     -0.00000000      1.01283857
F        0.00000000     -0.00000000      1.96190811
5
B97/aug-cc-pVQZ global_min E=-193.907466428 Eh optimizer converged in 6 steps
H        0.00000000      0.00000000     -3.03938494
C       -0.00000000      0.00000000     -1.97074346
N       -0.00000000      0.00000000     -0.82556542
H       -0.00000000      0.00000000      1.02570274
F       -0.00000000      0.00000000      1.95911855
5
PBE/aug-cc-pVDZ local_min E=-193.689967293 Eh optimizer converged in 18 steps
H        0.02252771      0.03519761      0.00000000
C       -1.06385937      0.02547685      0.00000000
N       -2.23253336      0.00934295     -0.00000000
H        2.82244313     -0.60978228      0.00000000
F        2.13835551      0.02782303      0.00000000
5
PW91/aug-cc-pVDZ local_min E=-193.834610207 Eh optimizer converged in 25 steps
H        0.02084498      0.02013642     -0.00000000
C       -1.06376085      0.02433400     -0.00000000
N       -2.23098822      0.02353882     -0.00000000
H        2.84075223     -0.58698609      0.00000000
F        2.12619652      0.01559732     -0.00000000
5
BP86/aug-cc-pVDZ local_min E=-193.898102063 Eh optimizer converged in 20 steps
H        0.01706485      0.05408662     -0.00000000
C       -1.06957080      0.02717616     -0.00000000
N       -2.23829739     -0.00764924     -0.00000000
H        2.81181726     -0.62831599      0.00000000
F        2.16014700      0.04366581     -0.00000000
5
BLYP/aug-cc-pVDZ local_min E=-193.868717366 Eh optimizer converged in 19 steps
H       -0.02312590      0.00507644      0.00000000
C       -1.10652303      0.02818398      0.00000000
N       -2.27477970      0.04894178      0.00000000
H        2.90248711     -0.57140769     -0.00000000
F        2.14533188     -0.01853066      0.00000000
5
B97/aug-cc-pVDZ local_min E=-193.835765421 Eh optimizer converged in 16 steps
H       -0.03108751      0.00731251     -0.00000000
C       -1.10957444      0.03069370     -0.00000000
N       -2.26919661      0.05232817      0.00000000
H        2.90997315     -0.55395038     -0.00000000
F        2.13969768     -0.04332038     -0.00000000
5
PBE/aug-cc-pVTZ local_min E=-193.741616772 Eh optimizer converged in 17 steps
H        0.03256259      0.08856546     -0.00000000
C       -1.04447995      0.02800570     -0.00000000
N       -2.20083091     -0.04386653      0.00000000
H        2.75413065     -0.65431160      0.00000000
F        2.16586170      0.07077048     -0.00000000
5
PW91/aug-cc-pVTZ local_min E=-193.888116374 Eh optimizer converged in 29 steps
H        0.03591586      0.08613427      0.00000000
C       -1.03940967      0.02752677      0.00000000
N       -2.19409437     -0.04236765      0.00000000
H        2.74374141     -0.65833222      0.00000000
F        2.15719717      0.06719128      0.00000000
5
BP86/aug-cc-pVTZ local_min E=-193.950878320 Eh optimizer converged in 18 steps
H        0.02173142      0.09507667      0.00000000
C       -1.05474916      0.02903557     -0.00000000
N       -2.21071837     -0.04858200     -0.00000000
H        2.75800435     -0.66087513     -0.00000000
F        2.18322716      0.07596263      0.00000000
5
BLYP/aug-cc-pVTZ local_min E=-193.925515201 Eh optimizer converged in 17 steps
H       -0.00473681      0.07325103      0.00000000
C       -1.07839375      0.03002165      0.00000000
N       -2.23475217     -0.02244630     -0.00000000
H        2.81021721     -0.64074390     -0.00000000
F        2.17989280      0.05170438      0.00000000
5
B97/aug-cc-pVTZ local_min E=-193.886326471 Eh optimizer converged in 17 steps
H       -0.00992175      0.07999793     -0.00000000
C       -1.07978955      0.03219259      0.00000000
N       -2.22811256     -0.02440644      0.00000000
H        2.81701268     -0.62950624     -0.00000000
F        2.17658962      0.03511156     -0.00000000
5
PBE/aug-cc-pVQZ local_min E=-193.756240104 Eh optimizer converged in 17 steps
H        0.03289489      0.09587988      0.00000000
C       -1.04405250      0.02971219      0.00000000
N       -2.19924733     -0.04878178     -0.00000000
H        2.75463055     -0.65350651     -0.00000000
F        2.16378996      0.06724669      0.00000000
5
PW91/aug-cc-pVQZ local_min E=-193.903072966 Eh optimizer converged in 24 steps
H        0.03448929      0.09187730     -0.00000000
C       -1.04082638      0.02962780     -0.00000000
N       -2.19453209     -0.04483152      0.00000000
H        2.74513283     -0.66019892     -0.00000000
F        2.15296150      0.05847591     -0.00000000
5
BP86/aug-cc-pVQZ local_min E=-193.965555972 Eh optimizer converged in 19 steps
H        0.02159970      0.10747136      0.00000000
C       -1.05457241      0.03140522      0.00000000
N       -2.20901447     -0.05769035     -0.00000000
H        2.75593925     -0.66253945      0.00000000
F        2.18345055      0.07375552      0.00000000
5
BLYP/aug-cc-pVQZ local_min E=-193.940468647 Eh optimizer converged in 18 steps
H       -0.00590914      0.08064638      0.00000000
C       -1.07952531      0.03205074     -0.00000000
N       -2.23485084     -0.02666895     -0.00000000
H        2.81366512     -0.63875388     -0.00000000
F        2.17806960      0.04625035      0.00000000
5
B97/aug-cc-pVQZ local_min E=-193.900387667 Eh optimizer converged in 18 steps
H       -0.01123507      0.09280694     -0.00000000
C       -1.08074902      0.03498320     -0.00000000
N       -2.22759844     -0.03291275      0.00000000
H        2.81963252     -0.62983189      0.00000000
F        2.17681420      0.03012292     -0.00000000
