5
PBE/aug-cc-pVDZ global_min E=-553.874192605 Eh optimizer converged in 21 steps
H       -0.00000000      -0.00000000       3.80272959
C       -0.00000000      -0.00000000       2.69835578
N        0.00000000       0.00000000       1.53298267
H        0.00000000       0.00000000      -0.33727985
Cl       0.00000000      -0.00000000      -1.68801395
5
PW91/aug-cc-pVDZ global_min E=-554.128071877 Eh optimizer converged in 29 steps
H       -0.00000000       0.00000000       3.86030562
C       -0.00000000      -0.00000000       2.75775516
N       -0.00000000      -0.00000000       1.59396694
H       -0.00000000      -0.00000000      -0.26063582
Cl       0.00000000       0.00000000      -1.61174868
5
BP86/aug-cc-pVDZ global_min E=-554.222145007 Eh optimizer converged in 8 steps
H        0.00000000      -0.00000000       3.82183088
C        0.00000000      -0.00000000       2.71698115
N        0.00000000       0.00000000       1.55113335
H        0.00000000       0.00000000      -0.32239789
Cl      -0.00000000      -0.00000000      -1.67542186
5
BLYP/aug-cc-pVDZ global_min E=-554.150015872 Eh optimizer converged in 8 steps
H        0.00000000      -0.00000000       3.85866331
C        0.00000000      -0.00000000       2.75608178
N       -0.00000000       0.00000000       1.59036595
H       -0.00000000       0.00000000      -0.36268510
Cl       0.00000000      -0.00000000      -1.71190701
5
B97/aug-cc-pVDZ global_min E=-554.086147504 Eh optimizer converged in 7 steps
H       -0.00000000      -0.00000000       3.85736906
C       -0.00000000      -0.00000000       2.75955393
N        0.00000000       0.00000000       1.60235641
H        0.00000000       0.00000000      -0.37111657
Cl      -0.00000000      -0.00000000      -1.70879083
5
PBE/aug-cc-pVTZ global_min E=-553.910114135 Eh optimizer converged in 8 steps
H        0.00000000      -0.00000000       3.81616617
C        0.00000000       0.00000000       2.71575390
N       -0.00000000       0.00000000       1.56027976
H       -0.00000000       0.00000000      -0.32761912
Cl       0.00000000      -0.00000000      -1.67099954
5
PW91/aug-cc-pVTZ global_min E=-554.165702646 Eh optimizer converged in 8 steps
H        0.00000000      -0.00000000       3.80759579
C       -0.00000000       0.00000000       2.70899528
N       -0.00000000       0.00000000       1.55530954
H       -0.00000000       0.00000000      -0.32076211
Cl       0.00000000      -0.00000000      -1.66383271
5
BP86/aug-cc-pVTZ global_min E=-554.259408170 Eh optimizer converged in 8 steps
H        0.00000000       0.00000000       3.81976409
C       -0.00000000      -0.00000000       2.71942161
N       -0.00000000      -0.00000000       1.56393492
H        0.00000000      -0.00000000      -0.33084072
Cl      -0.00000000       0.00000000      -1.67544550
5
BLYP/aug-cc-pVTZ global_min E=-554.190309891 Eh optimizer converged in 8 steps
H       -0.00000000      -0.00000000       3.85993884
C        0.00000000       0.00000000       2.76275565
N        0.00000000       0.00000000       1.60773431
H        0.00000000       0.00000000      -0.37583165
Cl      -0.00000000      -0.00000000      -1.71538999
5
B97/aug-cc-pVTZ global_min E=-554.121015548 Eh NOT converged: hit 1500-step cap, Hessian run anyway
H       -0.00061368       0.00033132       1.67421940
C       -0.00030611      -0.00007768       0.58075360
N        0.00011049      -0.00055666      -0.56656264
H        0.00053710      -0.00127389      -2.55355797
Cl       0.00111390      -0.00192321      -3.88358184
5
PBE/aug-cc-pVQZ global_min E=-553.920518553 Eh optimizer converged in 8 steps
H       -0.00000000      -0.00000000       3.81999772
C        0.00000000       0.00000000       2.71968228
N        0.00000000       0.00000000       1.56488245
H        0.00000000      -0.00000000      -0.33306988
Cl      -0.00000000       0.00000000      -1.67432609
5
PW91/aug-cc-pVQZ global_min E=-554.176177265 Eh optimizer converged in 8 steps
H        0.00000000      -0.00000000       3.81181760
C        0.00000000      -0.00000000       2.71333045
N        0.00000000       0.00000000       1.56028352
H       -0.00000000       0.00000000      -0.32616754
Cl      -0.00000000      -0.00000000      -1.66718282
5
BP86/aug-cc-pVQZ global_min E=-554.269818268 Eh optimizer converged in 8 steps
H        0.00000000      -0.00000000       3.82402375
C        0.00000000      -0.00000000       2.72374701
N       -0.00000000      -0.00000000       1.56889469
H       -0.00000000       0.00000000      -0.33660701
Cl       0.00000000       0.00000000      -1.67911864
5
BLYP/aug-cc-pVQZ global_min E=-554.200883356 Eh optimizer converged in 8 steps
H        0.00000000       0.00000000       3.86334173
C        0.00000000       0.00000000       2.76629319
N       -0.00000000      -0.00000000       1.61196458
H       -0.00000000      -0.00000000      -0.38069967
Cl       0.00000000       0.00000000      -1.71838911
5
B97/aug-cc-pVQZ global_min E=-554.131209034 Eh NOT finished: killed after 307 steps
H        0.00000000      -0.00000000       3.35688300
C       -0.00000000       0.00000000       2.26341500
N       -0.00000000       0.00000000       1.11690500
H       -0.00000000       0.00000000      -0.88262800
Cl       0.00000000      -0.00000000      -2.21003900
5
PBE/aug-cc-pVDZ local_min E=-553.867791715 Eh optimizer converged in 24 steps
H        0.79142985      -0.11579800      -0.00000000
C        1.89960312      -0.05547020       0.00000000
N        3.06694088       0.01418173       0.00000000
H       -1.97604131       1.25524629       0.00000000
Cl      -1.81053500      -0.06022757      -0.00000000
5
PW91/aug-cc-pVDZ local_min E=-554.121425734 Eh optimizer converged in 26 steps
H        0.77306416      -0.11382025      -0.00000000
C        1.87981290      -0.05624670      -0.00000000
N        3.04578142       0.01060656       0.00000000
H       -1.97383996       1.25728997      -0.00000000
Cl      -1.81084486      -0.05783914      -0.00000000
5
BP86/aug-cc-pVDZ local_min E=-554.215853363 Eh optimizer converged in 32 steps
H        0.81025662      -0.11279946       0.00000000
C        1.91915484      -0.05796406       0.00000000
N        3.08728516       0.00565550       0.00000000
H       -2.00087623       1.25774396      -0.00000000
Cl      -1.82198555      -0.05771930      -0.00000000
5
BLYP/aug-cc-pVDZ local_min E=-554.144458356 Eh optimizer converged in 19 steps
H        0.86606685      -0.10467297      -0.00000000
C        1.97181129      -0.06674303       0.00000000
N        3.14002074      -0.02199331       0.00000000
H       -2.07263846       1.26529111       0.00000000
Cl      -1.85638408      -0.04650139      -0.00000000
5
B97/aug-cc-pVDZ local_min E=-554.080737197 Eh optimizer converged in 33 steps
H        0.86538525      -0.13655636       0.00000000
C        1.96459711      -0.06747345       0.00000000
N        3.12235852       0.01053007      -0.00000000
H       -2.01147720       1.25036690      -0.00000000
Cl      -1.82644677      -0.05716458       0.00000000
5
PBE/aug-cc-pVTZ local_min E=-553.903935727 Eh optimizer converged in 17 steps
H        0.79728244      -0.12034560       0.00000000
C        1.90035870      -0.05635332       0.00000000
N        3.05714035       0.01708497      -0.00000000
H       -1.97340352       1.25242100      -0.00000000
Cl      -1.81093837      -0.05669489       0.00000000
5
PW91/aug-cc-pVTZ local_min E=-554.159353116 Eh optimizer converged in 18 steps
H        0.78607349      -0.11900518      -0.00000000
C        1.88763968      -0.05793265      -0.00000000
N        3.04281856       0.01250848       0.00000000
H       -1.96597328       1.25096371       0.00000000
Cl      -1.80529493      -0.05735585      -0.00000000
5
BP86/aug-cc-pVTZ local_min E=-554.253369725 Eh optimizer converged in 18 steps
H        0.81619564      -0.11369620       0.00000000
C        1.91956042      -0.05834631       0.00000000
N        3.07689954       0.00547154      -0.00000000
H       -1.99826240       1.25378815      -0.00000000
Cl      -1.82320114      -0.05472386       0.00000000
5
BLYP/aug-cc-pVTZ local_min E=-554.184965363 Eh optimizer converged in 19 steps
H        0.87503208      -0.11642228      -0.00000000
C        1.97395510      -0.06838111      -0.00000000
N        3.13063973      -0.01272196       0.00000000
H       -2.06750327       1.26374121       0.00000000
Cl      -1.86336046      -0.04164952      -0.00000000
5
B97/aug-cc-pVTZ local_min E=-554.115805666 Eh optimizer converged in 38 steps
H        0.87995703      -0.13337349       0.00000000
C        1.97409760      -0.06629905       0.00000000
N        3.12179233       0.00943241      -0.00000000
H       -2.00414357       1.26725550      -0.00000000
Cl      -1.82189999      -0.03323408       0.00000000
5
PBE/aug-cc-pVQZ local_min E=-553.914488770 Eh optimizer converged in 13 steps
H        0.80078427      -0.13835589      -0.00000000
C        1.90297283      -0.05846683      -0.00000000
N        3.05776124       0.03257860       0.00000000
H       -1.96871906       1.25427506      -0.00000000
Cl      -1.81964262      -0.05492204       0.00000000
5
PW91/aug-cc-pVQZ local_min E=-554.169994449 Eh optimizer converged in 22 steps
H        0.78858510      -0.14014487      -0.00000000
C        1.88897514      -0.05949629      -0.00000000
N        3.04192508       0.03261796       0.00000000
H       -1.96009423       1.25409879       0.00000000
Cl      -1.81552082      -0.05464001      -0.00000000
5
BP86/aug-cc-pVQZ local_min E=-554.263941170 Eh optimizer converged in 18 steps
H        0.82215097      -0.13110261      -0.00000000
C        1.92494158      -0.06099129      -0.00000000
N        3.08054926       0.01918785       0.00000000
H       -1.99675763       1.25641289       0.00000000
Cl      -1.83366681      -0.05210052      -0.00000000
5
BLYP/aug-cc-pVQZ local_min E=-554.195657710 Eh optimizer converged in 19 steps
H        0.87936601      -0.13608062      -0.00000000
C        1.97772113      -0.07257739      -0.00000000
N        3.13271510       0.00002871       0.00000000
H       -2.06289297       1.26659234      -0.00000000
Cl      -1.87405447      -0.03955586      -0.00000000
5
B97/aug-cc-pVQZ local_min E=-554.126127522 Eh optimizer converged in 47 steps
H        0.88137056      -0.16718298      -0.00000000
C        1.97415968      -0.07788958      -0.00000000
N        3.11911702       0.02203125       0.00000000
H       -1.99304386       1.26520195      -0.00000000
Cl      -1.83362383      -0.03621163      -0.00000000
5
PBE/aug-cc-pVDZ xlocal_min E=-553.865008482 Eh optimizer converged in 74 steps
H       -0.00000019      -0.00000001       3.90764458
C        0.00000015       0.00000000       2.80394600
N        0.00000033       0.00000003       1.63507671
H        0.00000049       0.00000004      -3.07363692
Cl      -0.00000068      -0.00000006      -1.74977250
5
PW91/aug-cc-pVDZ xlocal_min E=-554.118636020 Eh optimizer converged in 64 steps
H       -0.00000001      -0.00000000       3.85266359
C       -0.00000000      -0.00000000       2.75082279
N        0.00000001       0.00000000       1.58349699
H        0.00000003       0.00000000      -3.09788662
Cl      -0.00000003      -0.00000000      -1.77466919
5
BP86/aug-cc-pVDZ xlocal_min E=n/a Eh substituted: February run drifted apart (N..Cl 11.7 A, NOT converged: hit 1500-step cap, Hessian run anyway); starting from the PBE/aug-cc-pVDZ halogen-bonded geometry
H       -0.00000019      -0.00000001       3.90764458
C        0.00000015       0.00000000       2.80394600
N        0.00000033       0.00000003       1.63507671
H        0.00000049       0.00000004      -3.07363692
Cl      -0.00000068      -0.00000006      -1.74977250
5
BLYP/aug-cc-pVDZ xlocal_min E=n/a Eh substituted: February run drifted apart (N..Cl 11.1 A, NOT converged: hit 1500-step cap, Hessian run anyway); starting from the PBE/aug-cc-pVDZ halogen-bonded geometry
H       -0.00000019      -0.00000001       3.90764458
C        0.00000015       0.00000000       2.80394600
N        0.00000033       0.00000003       1.63507671
H        0.00000049       0.00000004      -3.07363692
Cl      -0.00000068      -0.00000006      -1.74977250
5
B97/aug-cc-pVDZ xlocal_min E=-554.078118022 Eh optimizer converged in 1425 steps
H       -0.00000856       0.00001345       6.24682424
C       -0.00002752       0.00000603       5.14975373
N       -0.00003619      -0.00000188       3.98978430
H        0.00000272       0.00001499      -0.83267687
Cl      -0.00000629       0.00001493       0.48584345
5
PBE/aug-cc-pVTZ xlocal_min E=-553.901226986 Eh optimizer converged in 16 steps
H       -0.00000000      -0.00000000       3.98571799
C        0.00000000       0.00000000       2.88617825
N        0.00000000       0.00000000       1.72763161
H       -0.00000000      -0.00000000      -3.05633713
Cl       0.00000000       0.00000000      -1.73925666
5
PW91/aug-cc-pVTZ xlocal_min E=-554.156615117 Eh optimizer converged in 9 steps
H       -0.00000000       0.00000000       3.98824629
C       -0.00000000       0.00000000       2.89057008
N       -0.00000000      -0.00000000       1.73381319
H       -0.00000000       0.00000000      -3.04302548
Cl       0.00000000      -0.00000000      -1.72701307
5
BP86/aug-cc-pVTZ xlocal_min E=n/a Eh substituted: February run drifted apart (N..Cl 12.0 A, optimizer converged in 290 steps); starting from the PBE/aug-cc-pVTZ halogen-bonded geometry
H       -0.00000000      -0.00000000       3.98571799
C        0.00000000       0.00000000       2.88617825
N        0.00000000       0.00000000       1.72763161
H       -0.00000000      -0.00000000      -3.05633713
Cl       0.00000000       0.00000000      -1.73925666
5
BLYP/aug-cc-pVTZ xlocal_min E=n/a Eh substituted: February run drifted apart (N..Cl 13.2 A, NOT converged: hit 1500-step cap, Hessian run anyway); starting from the PBE/aug-cc-pVTZ halogen-bonded geometry
H       -0.00000000      -0.00000000       3.98571799
C        0.00000000       0.00000000       2.88617825
N        0.00000000       0.00000000       1.72763161
H       -0.00000000      -0.00000000      -3.05633713
Cl       0.00000000       0.00000000      -1.73925666
5
B97/aug-cc-pVTZ xlocal_min E=-554.113290679 Eh optimizer converged in 20 steps
H       -0.00000000       0.00000000       4.02111023
C        0.00000000       0.00000000       2.92862476
N        0.00000000      -0.00000000       1.77888549
H       -0.00000000      -0.00000000      -3.11409642
Cl       0.00000000      -0.00000000      -1.80297403
5
PBE/aug-cc-pVQZ xlocal_min E=-553.911825769 Eh optimizer converged in 9 steps
H       -0.00000000      -0.00000000       3.99642405
C       -0.00000000       0.00000000       2.89701015
N       -0.00000000       0.00000000       1.73919876
H        0.00000000      -0.00000000      -3.05214280
Cl       0.00000000       0.00000000      -1.73659354
5
PW91/aug-cc-pVQZ xlocal_min E=-554.167322648 Eh optimizer converged in 16 steps
H       -0.00000000       0.00000000       3.97805917
C        0.00000000       0.00000000       2.88051735
N        0.00000000      -0.00000000       1.72445540
H        0.00000000       0.00000000      -3.06037115
Cl      -0.00000000      -0.00000000      -1.74584265
5
BP86/aug-cc-pVQZ xlocal_min E=n/a Eh substituted: February run drifted apart (N..Cl 10.4 A, NOT finished: killed after 639 steps); starting from the PBE/aug-cc-pVQZ halogen-bonded geometry
H       -0.00000000      -0.00000000       3.99642405
C       -0.00000000       0.00000000       2.89701015
N       -0.00000000       0.00000000       1.73919876
H        0.00000000      -0.00000000      -3.05214280
Cl       0.00000000       0.00000000      -1.73659354
5
BLYP/aug-cc-pVQZ xlocal_min E=n/a Eh substituted: February run drifted apart (N..Cl 11.1 A, NOT finished: killed after 645 steps); starting from the PBE/aug-cc-pVQZ halogen-bonded geometry
H       -0.00000000      -0.00000000       3.99642405
C       -0.00000000       0.00000000       2.89701015
N       -0.00000000       0.00000000       1.73919876
H        0.00000000      -0.00000000      -3.05214280
Cl       0.00000000       0.00000000      -1.73659354
5
B97/aug-cc-pVQZ xlocal_min E=-554.123650227 Eh optimizer converged in 9 steps
H        0.00000000      -0.00000000       4.04309833
C        0.00000000      -0.00000000       2.95062462
N       -0.00000000       0.00000000       1.80176259
H       -0.00000000      -0.00000000      -3.10468921
Cl       0.00000000       0.00000000      -1.79565178
